&FORCE_EVAL
   &DFT
      MULTIPLICITY 6
      UKS
      BASIS_SET_FILE_NAME GTH_BASIS_SETS
      BASIS_SET_FILE_NAME BASIS_MOLOPT_UCL
      &MGRID
         CUTOFF 400
      &END MGRID
      POTENTIAL_FILE_NAME POTENTIAL
      &QS
         EPS_DEFAULT 1e-12
         EPS_PGF_ORB 1e-14
         EXTRAPOLATION USE_GUESS
         EXTRAPOLATION_ORDER 5
      &END QS
      &SCF
         EPS_SCF 5e-07
         MAX_SCF 500
         &OT
            MINIMIZER DIIS
            PRECONDITIONER FULL_ALL
         &END OT
         &OUTER_SCF
            EPS_SCF 5e-07
            MAX_SCF 40
         &END OUTER_SCF
         SCF_GUESS RESTART
      &END SCF
      &XC
         &VDW_POTENTIAL
            &PAIR_POTENTIAL
               LONG_RANGE_CORRECTION TRUE
               PARAMETER_FILE_NAME dftd3.dat
               REFERENCE_FUNCTIONAL revPBE
               R_CUTOFF 15
               TYPE DFTD3
            &END PAIR_POTENTIAL
            POTENTIAL_TYPE PAIR_POTENTIAL
         &END VDW_POTENTIAL
         &XC_FUNCTIONAL
            &PBE
               PARAMETRIZATION REVPBE
            &END PBE
         &END XC_FUNCTIONAL
         &XC_GRID
            XC_DERIV NN10_SMOOTH
         &END XC_GRID
      &END XC
      &POISSON
       PERIODIC NONE
       POISSON_SOLVER ANALYTIC
      &END POISSON
   &END DFT
   METHOD Quickstep
   &PRINT
      &FORCES ON
      &END FORCES
   &END PRINT
   &SUBSYS
      &CELL
       ABC 40 40 40
       PERIODIC NONE
      &END CELL
      &KIND C
         BASIS_SET TZV2P-GTH
         POTENTIAL GTH-PBE-q4
      &END KIND
      &KIND O
         BASIS_SET TZV2P-GTH
         POTENTIAL GTH-PBE-q6
      &END KIND
      &KIND H
         BASIS_SET TZV2P-GTH
         POTENTIAL GTH-PBE-q1
      &END KIND
      &KIND DY
         BASIS_SET TZV2P-MOLOPT-SR-GTH
         POTENTIAL GTH-PBE-q20
      &END KIND
      &TOPOLOGY
         COORD_FILE_FORMAT XYZ
         COORD_FILE_NAME frame.xyz
      &END TOPOLOGY
   &END SUBSYS
&END FORCE_EVAL
&GLOBAL
   PROJECT wannier
   RUN_TYPE ENERGY_FORCE
&END GLOBAL
